TIP.Original.Linear/isaplanner_prop_06.smt2
(set-logic HORN)
(declare-datatypes ((Nat_29 0)) (((Z_81 ) (S_29 (projS_28 Nat_29)))))
(declare-fun diseqNat_29 (Nat_29 Nat_29) Bool)
(declare-fun projS_29 (Nat_29 Nat_29) Bool)
(declare-fun isZ_29 (Nat_29) Bool)
(declare-fun isS_29 (Nat_29) Bool)
(assert (forall ((x_870 Nat_29))
	(projS_29 x_870 (S_29 x_870))))
(assert (isZ_29 Z_81))
(assert (forall ((x_872 Nat_29))
	(isS_29 (S_29 x_872))))
(assert (forall ((x_873 Nat_29))
	(diseqNat_29 Z_81 (S_29 x_873))))
(assert (forall ((x_874 Nat_29))
	(diseqNat_29 (S_29 x_874) Z_81)))
(assert (forall ((x_875 Nat_29) (x_876 Nat_29))
	(=> (diseqNat_29 x_875 x_876)
	    (diseqNat_29 (S_29 x_875) (S_29 x_876)))))
(declare-fun x_854 (Nat_29 Nat_29 Nat_29) Bool)
(assert (forall ((x_859 Nat_29) (x_856 Nat_29) (z_82 Nat_29))
	(=> (x_854 x_859 z_82 x_856)
	    (x_854 x_859 (S_29 z_82) (S_29 x_856)))))
(assert (forall ((z_82 Nat_29))
	(x_854 (S_29 z_82) (S_29 z_82) Z_81)))
(assert (forall ((y_65 Nat_29))
	(x_854 Z_81 Z_81 y_65)))
(declare-fun x_857 (Nat_29 Nat_29 Nat_29) Bool)
(assert (forall ((x_864 Nat_29) (z_83 Nat_29) (y_66 Nat_29))
	(=> (x_857 x_864 z_83 y_66)
	    (x_857 (S_29 x_864) (S_29 z_83) y_66))))
(assert (forall ((x_865 Nat_29))
	(x_857 x_865 Z_81 x_865)))
(assert (forall ((x_866 Nat_29) (x_867 Nat_29) (n_7 Nat_29) (m_2 Nat_29))
	(=>	(and true
			(diseqNat_29 x_867 Z_81)
			(x_857 x_866 n_7 m_2)
			(x_854 x_867 n_7 x_866))
		false)))
(check-sat)
